p tw 40 98
0 1
0 2
0 12
0 22
0 25
0 7
1 11
1 36
1 37
1 32
1 17
1 22
2 19
2 9
3 4
4 21
4 15
4 6
4 33
4 28
4 29
4 39
4 32
5 6
5 7
5 27
5 30
5 39
5 14
6 14
6 27
6 13
7 20
7 15
7 30
7 17
7 23
7 37
8 9
8 14
9 28
9 38
9 33
10 11
10 24
10 38
11 15
11 14
12 20
13 14
13 36
14 18
14 28
14 29
14 27
15 24
15 27
15 31
15 38
15 36
15 16
15 39
15 26
16 17
16 25
16 32
16 35
17 26
18 19
18 21
18 36
19 29
19 30
20 27
21 23
21 39
21 28
21 36
23 24
23 26
23 36
24 26
24 28
25 26
26 36
26 38
27 28
27 29
28 29
28 37
28 36
29 30
29 34
29 35
29 32
31 36
33 37
34 35
